100
400
320
311
311
310
310
308
305
304
303
302
301
296
294
290
290
289
286
286
283
279
279
277
273
272
268
268
267
263
260
260
258
258
258
256
250
249
244
241
238
231
225
224
222
219
214
211
210
209
209
206
206
206
206
197
196
195
192
191
188
183
178
177
170
167
166
160
158
158
158
156
153
150
150
150
146
144
143
140
134
133
132
131
129
128
125
121
121
118
116
114
113
110
108
107
105
102
101
96
94
82
